(declare-const delta_y Int)
(declare-const delta_tmp Int)
(declare-const delta___cost Int)
(assert (exists
         ((|y'?1| Int) (|tmp'?2| Int) (|__cost'?3| Int) (havoc?4 Int)
            (m?5 Int) (y?6 Int) (tmp?7 Int) (__cost?8 Int))
         (and (< (- __cost?8) 0) (< (+ (- m?5) y?6) 0)
                (or (< havoc?4 0) (< 0 havoc?4)) (<= (- __cost?8) 0)
                (<= (+ (- __cost?8) -1) 0) (= (+ |y'?1| (- y?6) -1) 0)
                (= (+ |tmp'?2| (- havoc?4)) 0)
                (= (+ |__cost'?3| (- __cost?8) -1) 0)
                (= delta___cost (+ |__cost'?3| (- __cost?8)))
                (= delta_tmp (+ |tmp'?2| (- tmp?7)))
                (= delta_y (+ |y'?1| (- y?6))))))
(check-sat)
